(set-info :source |printed by MathSAT|)
(declare-fun |!{$(in_main#0)<x>}| () Int)
(declare-fun |!{$(in_main#0)<x>}.next| () Int)
(declare-fun |!{$(in_main#0)<aa.1>}| () (Array Int Int))
(declare-fun |!{$(in_main#0)<aa.1>}.next| () (Array Int Int))
(declare-fun |!{$(in_main#0)<bb.2>}| () (Array Int Int))
(declare-fun |!{$(in_main#0)<bb.2>}.next| () (Array Int Int))
(declare-fun |!{$(in_main#0)<cc.3>}| () (Array Int Int))
(declare-fun |!{$(in_main#0)<cc.3>}.next| () (Array Int Int))
(declare-fun |!{$(in_main#0)<N>}| () Int)
(declare-fun |!{$(in_main#0)<N>}.next| () Int)
(declare-fun |!{$(in_main#0)<a>}| () Int)
(declare-fun |!{$(in_main#0)<a>}.next| () Int)
(declare-fun |!{$(in_main#0)<b>}| () Int)
(declare-fun |!{$(in_main#0)<b>}.next| () Int)
(declare-fun |!{$(in_main#0)<c>}| () Int)
(declare-fun |!{$(in_main#0)<c>}.next| () Int)
(declare-fun |!{$(in_main#0)<i>}| () Int)
(declare-fun |!{$(in_main#0)<i>}.next| () Int)
(declare-fun |!{$(in_main#0)<$(in___VERIFIER_nondet_int#0)<h#<__VERIFIER_nondet_int.return>>>}| () Int)
(declare-fun |!{$(in_main#0)<$(in___VERIFIER_nondet_int#1)<h#<__VERIFIER_nondet_int.return>>>}| () Int)
(declare-fun !pc () Int)
(declare-fun !pc.next () Int)
(declare-fun |%{$(in_main#0)<x>}#1| () Int)
(declare-fun |%{$(in_main#0)<aa.1>}#1| () (Array Int Int))
(declare-fun |%{$(in_main#0)<bb.2>}#1| () (Array Int Int))
(declare-fun |%{$(in_main#0)<cc.3>}#1| () (Array Int Int))
(declare-fun |%{$(in_main#0)<cc.3>}#2| () (Array Int Int))
(declare-fun |%{$(in_main#0)<c>}#2| () Int)
(declare-fun |%{$(in_main#0)<bb.2>}#2| () (Array Int Int))
(declare-fun |%{$(in_main#0)<b>}#2| () Int)
(define-fun .def_38 () Int (! !pc :next !pc.next))
(define-fun .def_41 () Bool (! (= .def_38 2) :init true))
(define-fun .def_272 () Bool (= .def_38 31))
(define-fun .def_243 () Bool (= !pc.next 50))
(define-fun .def_275 () Bool (and .def_243 .def_272))
(define-fun .def_10 () (Array Int Int) (! |!{$(in_main#0)<aa.1>}| :next |!{$(in_main#0)<aa.1>}.next|))
(define-fun .def_90 () Bool (= .def_10 |!{$(in_main#0)<aa.1>}.next|))
(define-fun .def_8 () Int (! |!{$(in_main#0)<x>}| :next |!{$(in_main#0)<x>}.next|))
(define-fun .def_88 () Bool (= .def_8 |!{$(in_main#0)<x>}.next|))
(define-fun .def_172 () Bool (and .def_88 .def_90))
(define-fun .def_12 () (Array Int Int) (! |!{$(in_main#0)<bb.2>}| :next |!{$(in_main#0)<bb.2>}.next|))
(define-fun .def_92 () Bool (= .def_12 |!{$(in_main#0)<bb.2>}.next|))
(define-fun .def_173 () Bool (and .def_92 .def_172))
(define-fun .def_14 () (Array Int Int) (! |!{$(in_main#0)<cc.3>}| :next |!{$(in_main#0)<cc.3>}.next|))
(define-fun .def_94 () Bool (= .def_14 |!{$(in_main#0)<cc.3>}.next|))
(define-fun .def_234 () Bool (and .def_94 .def_173))
(define-fun .def_16 () Int (! |!{$(in_main#0)<N>}| :next |!{$(in_main#0)<N>}.next|))
(define-fun .def_96 () Bool (= .def_16 |!{$(in_main#0)<N>}.next|))
(define-fun .def_235 () Bool (and .def_96 .def_234))
(define-fun .def_18 () Int (! |!{$(in_main#0)<a>}| :next |!{$(in_main#0)<a>}.next|))
(define-fun .def_98 () Bool (= .def_18 |!{$(in_main#0)<a>}.next|))
(define-fun .def_267 () Bool (and .def_98 .def_235))
(define-fun .def_20 () Int (! |!{$(in_main#0)<b>}| :next |!{$(in_main#0)<b>}.next|))
(define-fun .def_100 () Bool (= .def_20 |!{$(in_main#0)<b>}.next|))
(define-fun .def_268 () Bool (and .def_100 .def_267))
(define-fun .def_22 () Int (! |!{$(in_main#0)<c>}| :next |!{$(in_main#0)<c>}.next|))
(define-fun .def_102 () Bool (= .def_22 |!{$(in_main#0)<c>}.next|))
(define-fun .def_269 () Bool (and .def_102 .def_268))
(define-fun .def_24 () Int (! |!{$(in_main#0)<i>}| :next |!{$(in_main#0)<i>}.next|))
(define-fun .def_104 () Bool (= .def_24 |!{$(in_main#0)<i>}.next|))
(define-fun .def_270 () Bool (and .def_104 .def_269))
(define-fun .def_250 () Bool (<= .def_16 .def_24))
(define-fun .def_271 () Bool (and .def_250 .def_270))
(define-fun .def_276 () Bool (and .def_271 .def_275))
(define-fun .def_75 () Bool (= !pc.next 31))
(define-fun .def_273 () Bool (and .def_75 .def_272))
(define-fun .def_262 () Int (* (- 1) |!{$(in_main#0)<i>}.next|))
(define-fun .def_263 () Int (+ .def_24 .def_262))
(define-fun .def_264 () Bool (= .def_263 (- 1)))
(define-fun .def_252 () (Array Int Int) (store .def_10 .def_24 |!{$(in_main#0)<$(in___VERIFIER_nondet_int#1)<h#<__VERIFIER_nondet_int.return>>>}|))
(define-fun .def_254 () Bool (= |!{$(in_main#0)<aa.1>}.next| .def_252))
(define-fun .def_255 () Bool (and .def_88 .def_254))
(define-fun .def_256 () Bool (and .def_92 .def_255))
(define-fun .def_257 () Bool (and .def_94 .def_256))
(define-fun .def_258 () Bool (and .def_96 .def_257))
(define-fun .def_259 () Bool (and .def_98 .def_258))
(define-fun .def_260 () Bool (and .def_100 .def_259))
(define-fun .def_261 () Bool (and .def_102 .def_260))
(define-fun .def_265 () Bool (and .def_261 .def_264))
(define-fun .def_251 () Bool (not .def_250))
(define-fun .def_266 () Bool (and .def_251 .def_265))
(define-fun .def_274 () Bool (and .def_266 .def_273))
(define-fun .def_277 () Bool (or .def_274 .def_276))
(define-fun .def_242 () Bool (= .def_38 50))
(define-fun .def_199 () Bool (= !pc.next 72))
(define-fun .def_246 () Bool (and .def_199 .def_242))
(define-fun .def_66 () Bool (= |!{$(in_main#0)<a>}.next| 0))
(define-fun .def_236 () Bool (and .def_66 .def_235))
(define-fun .def_237 () Bool (and .def_100 .def_236))
(define-fun .def_238 () Bool (and .def_102 .def_237))
(define-fun .def_239 () Bool (and .def_104 .def_238))
(define-fun .def_147 () Bool (<= .def_16 .def_18))
(define-fun .def_240 () Bool (and .def_147 .def_239))
(define-fun .def_247 () Bool (and .def_240 .def_246))
(define-fun .def_244 () Bool (and .def_242 .def_243))
(define-fun .def_228 () Bool (= |!{$(in_main#0)<b>}.next| |%{$(in_main#0)<b>}#2|))
(define-fun .def_223 () Bool (= |!{$(in_main#0)<bb.2>}.next| |%{$(in_main#0)<bb.2>}#2|))
(define-fun .def_224 () Bool (and .def_172 .def_223))
(define-fun .def_225 () Bool (and .def_94 .def_224))
(define-fun .def_226 () Bool (and .def_96 .def_225))
(define-fun .def_177 () Int (* (- 1) |!{$(in_main#0)<a>}.next|))
(define-fun .def_178 () Int (+ .def_18 .def_177))
(define-fun .def_179 () Bool (= .def_178 (- 1)))
(define-fun .def_227 () Bool (and .def_179 .def_226))
(define-fun .def_229 () Bool (and .def_227 .def_228))
(define-fun .def_230 () Bool (and .def_102 .def_229))
(define-fun .def_231 () Bool (and .def_104 .def_230))
(define-fun .def_216 () Int (* (- 1) |%{$(in_main#0)<b>}#2|))
(define-fun .def_217 () Int (+ .def_20 .def_216))
(define-fun .def_218 () Bool (= .def_217 (- 1)))
(define-fun .def_149 () Int (select .def_10 .def_18))
(define-fun .def_206 () (Array Int Int) (store .def_12 .def_20 .def_149))
(define-fun .def_211 () Bool (= .def_206 |%{$(in_main#0)<bb.2>}#2|))
(define-fun .def_150 () Bool (<= 0 .def_149))
(define-fun .def_213 () Bool (and .def_150 .def_211))
(define-fun .def_220 () Bool (and .def_213 .def_218))
(define-fun .def_215 () Bool (= .def_20 |%{$(in_main#0)<b>}#2|))
(define-fun .def_210 () Bool (= .def_12 |%{$(in_main#0)<bb.2>}#2|))
(define-fun .def_151 () Bool (not .def_150))
(define-fun .def_212 () Bool (and .def_151 .def_210))
(define-fun .def_219 () Bool (and .def_212 .def_215))
(define-fun .def_221 () Bool (or .def_219 .def_220))
(define-fun .def_232 () Bool (and .def_221 .def_231))
(define-fun .def_148 () Bool (not .def_147))
(define-fun .def_233 () Bool (and .def_148 .def_232))
(define-fun .def_245 () Bool (and .def_233 .def_244))
(define-fun .def_248 () Bool (or .def_245 .def_247))
(define-fun .def_198 () Bool (= .def_38 72))
(define-fun .def_136 () Bool (= !pc.next 95))
(define-fun .def_202 () Bool (and .def_136 .def_198))
(define-fun .def_187 () Bool (= |!{$(in_main#0)<x>}.next| 0))
(define-fun .def_188 () Bool (and .def_90 .def_187))
(define-fun .def_189 () Bool (and .def_92 .def_188))
(define-fun .def_190 () Bool (and .def_94 .def_189))
(define-fun .def_191 () Bool (and .def_96 .def_190))
(define-fun .def_192 () Bool (and .def_98 .def_191))
(define-fun .def_193 () Bool (and .def_100 .def_192))
(define-fun .def_194 () Bool (and .def_102 .def_193))
(define-fun .def_195 () Bool (and .def_104 .def_194))
(define-fun .def_196 () Bool (and .def_147 .def_195))
(define-fun .def_203 () Bool (and .def_196 .def_202))
(define-fun .def_200 () Bool (and .def_198 .def_199))
(define-fun .def_182 () Bool (= |!{$(in_main#0)<c>}.next| |%{$(in_main#0)<c>}#2|))
(define-fun .def_174 () Bool (= |!{$(in_main#0)<cc.3>}.next| |%{$(in_main#0)<cc.3>}#2|))
(define-fun .def_175 () Bool (and .def_173 .def_174))
(define-fun .def_176 () Bool (and .def_96 .def_175))
(define-fun .def_180 () Bool (and .def_176 .def_179))
(define-fun .def_181 () Bool (and .def_100 .def_180))
(define-fun .def_183 () Bool (and .def_181 .def_182))
(define-fun .def_184 () Bool (and .def_104 .def_183))
(define-fun .def_164 () Int (* (- 1) |%{$(in_main#0)<c>}#2|))
(define-fun .def_165 () Int (+ .def_22 .def_164))
(define-fun .def_166 () Bool (= .def_165 (- 1)))
(define-fun .def_152 () (Array Int Int) (store .def_14 .def_22 .def_149))
(define-fun .def_159 () Bool (= .def_152 |%{$(in_main#0)<cc.3>}#2|))
(define-fun .def_161 () Bool (and .def_151 .def_159))
(define-fun .def_168 () Bool (and .def_161 .def_166))
(define-fun .def_163 () Bool (= .def_22 |%{$(in_main#0)<c>}#2|))
(define-fun .def_158 () Bool (= .def_14 |%{$(in_main#0)<cc.3>}#2|))
(define-fun .def_160 () Bool (and .def_150 .def_158))
(define-fun .def_167 () Bool (and .def_160 .def_163))
(define-fun .def_169 () Bool (or .def_167 .def_168))
(define-fun .def_185 () Bool (and .def_169 .def_184))
(define-fun .def_186 () Bool (and .def_148 .def_185))
(define-fun .def_201 () Bool (and .def_186 .def_200))
(define-fun .def_204 () Bool (or .def_201 .def_203))
(define-fun .def_140 () Bool (= !pc.next 0))
(define-fun .def_131 () Bool (= .def_38 95))
(define-fun .def_141 () Bool (and .def_131 .def_140))
(define-fun .def_78 () Bool (<= .def_20 .def_8))
(define-fun .def_121 () Bool (and .def_78 .def_88))
(define-fun .def_122 () Bool (and .def_90 .def_121))
(define-fun .def_123 () Bool (and .def_92 .def_122))
(define-fun .def_124 () Bool (and .def_94 .def_123))
(define-fun .def_125 () Bool (and .def_96 .def_124))
(define-fun .def_126 () Bool (and .def_98 .def_125))
(define-fun .def_127 () Bool (and .def_100 .def_126))
(define-fun .def_128 () Bool (and .def_102 .def_127))
(define-fun .def_129 () Bool (and .def_104 .def_128))
(define-fun .def_142 () Bool (and .def_129 .def_141))
(define-fun .def_137 () Bool (and .def_131 .def_136))
(define-fun .def_108 () Int (* (- 1) |!{$(in_main#0)<x>}.next|))
(define-fun .def_109 () Int (+ .def_8 .def_108))
(define-fun .def_110 () Bool (= .def_109 (- 1)))
(define-fun .def_111 () Bool (and .def_90 .def_110))
(define-fun .def_112 () Bool (and .def_92 .def_111))
(define-fun .def_113 () Bool (and .def_94 .def_112))
(define-fun .def_114 () Bool (and .def_96 .def_113))
(define-fun .def_115 () Bool (and .def_98 .def_114))
(define-fun .def_116 () Bool (and .def_100 .def_115))
(define-fun .def_117 () Bool (and .def_102 .def_116))
(define-fun .def_118 () Bool (and .def_104 .def_117))
(define-fun .def_80 () Int (select .def_12 .def_8))
(define-fun .def_81 () Bool (<= 0 .def_80))
(define-fun .def_82 () Int (ite .def_81 1 0))
(define-fun .def_83 () Bool (= .def_82 0))
(define-fun .def_84 () Bool (not .def_83))
(define-fun .def_119 () Bool (and .def_84 .def_118))
(define-fun .def_79 () Bool (not .def_78))
(define-fun .def_120 () Bool (and .def_79 .def_119))
(define-fun .def_138 () Bool (and .def_120 .def_137))
(define-fun .def_133 () Bool (= !pc.next 115))
(define-fun .def_134 () Bool (and .def_131 .def_133))
(define-fun .def_89 () Bool (and .def_83 .def_88))
(define-fun .def_91 () Bool (and .def_89 .def_90))
(define-fun .def_93 () Bool (and .def_91 .def_92))
(define-fun .def_95 () Bool (and .def_93 .def_94))
(define-fun .def_97 () Bool (and .def_95 .def_96))
(define-fun .def_99 () Bool (and .def_97 .def_98))
(define-fun .def_101 () Bool (and .def_99 .def_100))
(define-fun .def_103 () Bool (and .def_101 .def_102))
(define-fun .def_105 () Bool (and .def_103 .def_104))
(define-fun .def_106 () Bool (and .def_79 .def_105))
(define-fun .def_135 () Bool (and .def_106 .def_134))
(define-fun .def_139 () Bool (or .def_135 .def_138))
(define-fun .def_143 () Bool (or .def_139 .def_142))
(define-fun .def_76 () Bool (and .def_41 .def_75))
(define-fun .def_72 () Bool (= |!{$(in_main#0)<i>}.next| 0))
(define-fun .def_70 () Bool (= |!{$(in_main#0)<c>}.next| 0))
(define-fun .def_68 () Bool (= |!{$(in_main#0)<b>}.next| 0))
(define-fun .def_64 () Bool (= |!{$(in_main#0)<N>}.next| |!{$(in_main#0)<$(in___VERIFIER_nondet_int#0)<h#<__VERIFIER_nondet_int.return>>>}|))
(define-fun .def_62 () Bool (= |!{$(in_main#0)<cc.3>}.next| |%{$(in_main#0)<cc.3>}#1|))
(define-fun .def_60 () Bool (= |!{$(in_main#0)<bb.2>}.next| |%{$(in_main#0)<bb.2>}#1|))
(define-fun .def_58 () Bool (= |!{$(in_main#0)<aa.1>}.next| |%{$(in_main#0)<aa.1>}#1|))
(define-fun .def_57 () Bool (= |!{$(in_main#0)<x>}.next| |%{$(in_main#0)<x>}#1|))
(define-fun .def_59 () Bool (and .def_57 .def_58))
(define-fun .def_61 () Bool (and .def_59 .def_60))
(define-fun .def_63 () Bool (and .def_61 .def_62))
(define-fun .def_65 () Bool (and .def_63 .def_64))
(define-fun .def_67 () Bool (and .def_65 .def_66))
(define-fun .def_69 () Bool (and .def_67 .def_68))
(define-fun .def_71 () Bool (and .def_69 .def_70))
(define-fun .def_73 () Bool (and .def_71 .def_72))
(define-fun .def_77 () Bool (and .def_73 .def_76))
(define-fun .def_144 () Bool (or .def_77 .def_143))
(define-fun .def_205 () Bool (or .def_144 .def_204))
(define-fun .def_249 () Bool (or .def_205 .def_248))
(define-fun .def_278 () Bool (! (or .def_249 .def_277) :trans true))
(define-fun .def_145 () Bool (= .def_38 115))
(define-fun .def_279 () Bool (! (not .def_145) :invar-property 0 :invar-property-name ||))
(assert true)
